coords = array2d(1..45, 1..2, [946, 481, 598, 523, 249, 807, 537, 316, 633,
    163, 765, 688, 397, 138, 258, 70, 583, 131, 375, 721, 121, 90,
    363, 498, 458, 1000, 392, 161, 828, 275, 485, 682, 291, 26, 821,
    233, 356, 103, 818, 823, 170, 556, 681, 197, 221, 30, 158, 538,
    482, 800, 138, 918, 453, 230, 436, 833, 931, 489, 819, 445, 97,
    120, 499, 61, 19, 693, 510, 564, 935, 8, 562, 255, 573, 871, 570,
    773, 595, 917, 955, 944, 662, 408, 528, 872, 400, 486, 254, 872,
    738, 338]);

n = 45;

